29240
1 0 1 1 1 1 1 1 1 1 1 1 1 1 1 1 1 1 0 1 1 1 1 0 1 1 1 1 0 1
19 20 21 15 9 3 8 3 6 25 9 4 10 12 9 2 14 21 16 20 16 16 25 19 17 8 7 22 3 2 4 5 7 3 2 27 7 24 24 17 27 25 12 7 3 5 12 15 22 19 17 19 24 4 24 4 5 9 14 15 17 27 13 25 0 21 5 14 26 15 29 3 2 8 0 19 22 22 3 25 5 25 11 12 20 5 15 2 6 15 9 29 17 8 29 17 20 0 11 2 6 9 19 11 27 19 17 11 13 9 25 16 29 21 7 11 20 8 11 2 15 10 29 13 10 15 21 21 8 2 10 5 12 9 16 26 5 25 14 15 4 9 19 11 11 19 11 8 10 9 8 11 5 22 4 24 0 29 12 17 26 20 27 15 11 0 9 5 19 13 2 13 24 4 25 7 24 14 27 4 20 4 19 22 26 15 29 4 8 29 0 8 26 20 8 10 4 13 27 8